sat
(
  (define-fun MemProv12 () Int
    6750)
  (define-fun C1_VM8 () Int
    0)
  (define-fun C4_VM4 () Int
    0)
  (define-fun C4_VM12 () Int
    0)
  (define-fun ProcProv11 () Int
    3599)
  (define-fun C5_VM1 () Int
    0)
  (define-fun C1_VM4 () Int
    0)
  (define-fun VM12Type () Int
    10)
  (define-fun PriceProv9 () Int
    0)
  (define-fun C5_VM9 () Int
    0)
  (define-fun C3_VM3 () Int
    0)
  (define-fun MemProv5 () Int
    1350)
  (define-fun C3_VM10 () Int
    0)
  (define-fun StorageProv11 () Int
    86999)
  (define-fun C1_VM12 () Int
    0)
  (define-fun C5_VM3 () Int
    1)
  (define-fun C3_VM9 () Int
    0)
  (define-fun StorageProv1 () Int
    42000)
  (define-fun C3_VM1 () Int
    0)
  (define-fun PriceProv11 () Int
    0)
  (define-fun C3_VM5 () Int
    0)
  (define-fun C5_VM11 () Int
    0)
  (define-fun StorageProv10 () Int
    42000)
  (define-fun VM7Type () Int
    0)
  (define-fun MemProv11 () Int
    6751)
  (define-fun C3_VM4 () Int
    0)
  (define-fun PriceProv8 () Int
    0)
  (define-fun ProcProv8 () Int
    3599)
  (define-fun ProcProv1 () Int
    900)
  (define-fun MemProv2 () Int
    1350)
  (define-fun StorageProv9 () Int
    42000)
  (define-fun C1_VM10 () Int
    1)
  (define-fun C1_VM9 () Int
    0)
  (define-fun PriceProv10 () Int
    120)
  (define-fun C2_VM9 () Int
    0)
  (define-fun StorageProv5 () Int
    42000)
  (define-fun StorageProv8 () Int
    19499)
  (define-fun C3_VM7 () Int
    0)
  (define-fun C2_VM2 () Int
    1)
  (define-fun C2_VM6 () Int
    0)
  (define-fun VM6Type () Int
    7)
  (define-fun PriceProv7 () Int
    0)
  (define-fun C3_VM11 () Int
    0)
  (define-fun C3_VM8 () Int
    0)
  (define-fun PriceProv2 () Int
    120)
  (define-fun C4_VM8 () Int
    0)
  (define-fun C4_VM6 () Int
    0)
  (define-fun C5_VM8 () Int
    0)
  (define-fun C2_VM1 () Int
    1)
  (define-fun C1_VM1 () Int
    1)
  (define-fun ProcProv3 () Int
    3600)
  (define-fun C5_VM12 () Int
    1)
  (define-fun PriceProv6 () Int
    240)
  (define-fun VM2Type () Int
    1)
  (define-fun C4_VM9 () Int
    0)
  (define-fun C2_VM12 () Int
    0)
  (define-fun MemProv6 () Int
    3150)
  (define-fun MemProv4 () Int
    6749)
  (define-fun C3_VM6 () Int
    1)
  (define-fun VM5Type () Int
    1)
  (define-fun C1_VM6 () Int
    0)
  (define-fun C4_VM5 () Int
    0)
  (define-fun C3_VM2 () Int
    0)
  (define-fun PriceProv3 () Int
    480)
  (define-fun C2_VM8 () Int
    0)
  (define-fun C4_VM1 () Int
    0)
  (define-fun ProcProv5 () Int
    900)
  (define-fun ProcProv7 () Int
    3599)
  (define-fun C4_VM3 () Int
    0)
  (define-fun C1_VM2 () Int
    1)
  (define-fun PriceProv12 () Int
    480)
  (define-fun ProcProv9 () Int
    900)
  (define-fun PriceProv5 () Int
    120)
  (define-fun MemProv7 () Int
    1350)
  (define-fun ProcProv4 () Int
    3601)
  (define-fun C5_VM7 () Int
    0)
  (define-fun C4_VM7 () Int
    0)
  (define-fun VM8Type () Int
    0)
  (define-fun C2_VM5 () Int
    1)
  (define-fun ProcProv12 () Int
    3600)
  (define-fun C2_VM4 () Int
    0)
  (define-fun C2_VM3 () Int
    0)
  (define-fun StorageProv12 () Int
    141000)
  (define-fun MemProv1 () Int
    1350)
  (define-fun MemProv10 () Int
    1350)
  (define-fun StorageProv6 () Int
    69000)
  (define-fun MemProv8 () Int
    13951)
  (define-fun ProcProv10 () Int
    900)
  (define-fun ProcProv6 () Int
    1800)
  (define-fun StorageProv7 () Int
    141001)
  (define-fun C1_VM7 () Int
    0)
  (define-fun VM11Type () Int
    0)
  (define-fun C1_VM3 () Int
    1)
  (define-fun VM9Type () Int
    0)
  (define-fun VM10Type () Int
    1)
  (define-fun C1_VM11 () Int
    0)
  (define-fun VM4Type () Int
    0)
  (define-fun C4_VM2 () Int
    0)
  (define-fun C4_VM11 () Int
    0)
  (define-fun MemProv3 () Int
    6750)
  (define-fun VM1Type () Int
    1)
  (define-fun C1_VM5 () Int
    1)
  (define-fun PriceProv1 () Int
    120)
  (define-fun C2_VM10 () Int
    1)
  (define-fun C5_VM4 () Int
    0)
  (define-fun StorageProv2 () Int
    42000)
  (define-fun C4_VM10 () Int
    0)
  (define-fun C2_VM7 () Int
    0)
  (define-fun MemProv9 () Int
    3151)
  (define-fun PriceProv4 () Int
    0)
  (define-fun VM3Type () Int
    10)
  (define-fun C5_VM10 () Int
    0)
  (define-fun C2_VM11 () Int
    0)
  (define-fun C3_VM12 () Int
    0)
  (define-fun C5_VM6 () Int
    0)
  (define-fun StorageProv3 () Int
    141000)
  (define-fun C5_VM2 () Int
    0)
  (define-fun StorageProv4 () Int
    267001)
  (define-fun ProcProv2 () Int
    900)
  (define-fun C5_VM5 () Int
    0)
)
(objectives
 ((+ 0
   PriceProv1
   PriceProv2
   PriceProv3
   PriceProv4
   PriceProv5
   PriceProv6
   PriceProv7
   PriceProv8
   PriceProv9
   PriceProv10
   PriceProv11
   PriceProv12) 1680)
)
(:added-eqs                   37351015
 :arith-eq-adapter            11004
 :arith-bound-propagations-lp 5907859
 :arith-conflicts             66973
 :arith-diseq                 26711726
 :arith-fixed-eqs             5141
 :arith-lower                 47244746
 :arith-make-feasible         2231479
 :arith-max-columns           193
 :arith-max-rows              38
 :arith-upper                 11223717
 :binary-propagations         181645865
 :conflicts                   1027330
 :decisions                   1368957
 :del-clause                  7063656
 :final-checks                65
 :max-memory                  376.90
 :memory                      375.58
 :minimized-lits              14922692
 :mk-bool-var                 24156
 :mk-clause                   7066773
 :mk-clause-binary            5799
 :num-allocs                  1901604032
 :num-checks                  51
 :pb-conflicts                177952
 :pb-predicates               607
 :pb-propagations             1783618
 :pb-resolves                 55039
 :propagations                395589842
 :restarts                    1823
 :rlimit-count                1404749366
 :time                        568.44
 :total-time                  537.34)
